Version identifier: 20.1.0.0 | 2020-11-10 | 9bedb6d68
Tried aggregator 2 times.
MIP Presolve eliminated 919 rows and 459 columns.
MIP Presolve modified 2400 coefficients.
Aggregator did 116 substitutions.
Reduced MIP has 1374 rows, 1090 columns, and 4509 nonzeros.
Reduced MIP has 232 binaries, 858 generals, 0 SOSs, and 0 indicators.
Presolve time = 0.01 sec. (5.58 ticks)
Found incumbent of value 1732.000000 after 0.03 sec. (11.19 ticks)
Probing fixed 30 vars, tightened 337 bounds.
Probing time = 0.00 sec. (0.86 ticks)
Tried aggregator 2 times.
Detecting symmetries...
MIP Presolve eliminated 585 rows and 58 columns.
MIP Presolve modified 149 coefficients.
Aggregator did 20 substitutions.
Reduced MIP has 769 rows, 1012 columns, and 2514 nonzeros.
Reduced MIP has 348 binaries, 664 generals, 0 SOSs, and 0 indicators.
Presolve time = 0.01 sec. (3.65 ticks)
Probing time = 0.00 sec. (0.22 ticks)
Clique table members: 35.
MIP emphasis: balance optimality and feasibility.
MIP search method: dynamic search.
Parallel mode: deterministic, using up to 24 threads.
Root relaxation solution time = 0.01 sec. (2.00 ticks)

        Nodes                                         Cuts/
   Node  Left     Objective  IInf  Best Integer    Best Bound    ItCnt     Gap

*     0+    0                         1732.0000        0.0000           100.00%
      0     0        0.0000    36     1732.0000        0.0000      245  100.00%
*     0+    0                           16.0000        0.0000           100.00%
      0     0        0.0000    44       16.0000      Cuts: 60      332  100.00%
      0     0        0.0000    60       16.0000      Cuts: 61      391  100.00%
*     0+    0                           13.0000        0.0000           100.00%
*     0+    0                           10.0000        0.0000           100.00%
      0     0        cutoff             10.0000       10.0000      391    0.00%
Elapsed time = 0.68 sec. (77.76 ticks, tree = 0.01 MB, solutions = 4)

Implied bound cuts applied:  13
Mixed integer rounding cuts applied:  2
Zero-half cuts applied:  24
Lift and project cuts applied:  4
Gomory fractional cuts applied:  8

Root node processing (before b&c):
  Real time             =    0.68 sec. (77.86 ticks)
Parallel b&c, 24 threads:
  Real time             =    0.00 sec. (0.00 ticks)
  Sync time (average)   =    0.00 sec.
  Wait time (average)   =    0.00 sec.
                          ------------
Total (root+branch&cut) =    0.68 sec. (77.86 ticks)

Solution status = Optimal
Solution LB = 10
Solution UB = 10
Runtime = 0.683189 seconds
	Command being timed: "/home/min/git_repos/CS598MEBProject/CNT-ILP/build/cnt -s 2 ./output/k8_n15/simC_c1_k8_n15_u1_s1_del04.input-left.cnp"
	User time (seconds): 11.03
	System time (seconds): 0.07
	Percent of CPU this job got: 1530%
	Elapsed (wall clock) time (h:mm:ss or m:ss): 0:00.72
	Average shared text size (kbytes): 0
	Average unshared data size (kbytes): 0
	Average stack size (kbytes): 0
	Average total size (kbytes): 0
	Maximum resident set size (kbytes): 79040
	Average resident set size (kbytes): 0
	Major (requiring I/O) page faults: 0
	Minor (reclaiming a frame) page faults: 16829
	Voluntary context switches: 4666
	Involuntary context switches: 1661
	Swaps: 0
	File system inputs: 0
	File system outputs: 16
	Socket messages sent: 0
	Socket messages received: 0
	Signals delivered: 0
	Page size (bytes): 4096
	Exit status: 0
